100 8
814 673
725 844
278 579
406 479
620 389
862 774
348 685
822 675
687 635
807 817
205 775
154 588
534 138
351 335
716 481
913 597
545 190
352 576
657 420
103 406
203 229
669 548
333 674
657 339
617 421
891 418
176 410
315 726
565 793
29 287
673 354
248 609
95 257
693 781
88 738
635 772
498 160
863 784
154 384
547 469
278 648
233 846
825 682
330 362
710 633
297 713
189 230
904 624
347 596
466 95
565 453
499 467
377 423
530 432
336 270
414 461
836 435
427 98
188 305
575 489
544 472
348 585
660 715
557 607
317 829
365 652
342 458
46 385
273 649
379 289
267 563
498 407
619 714
884 540
196 336
534 62
196 661
797 282
162 363
182 298
373 103
348 522
652 444
861 716
784 455
973 595
282 682
601 474
891 411
391 451
385 186
318 736
685 598
762 843
582 482
171 737
891 718
403 574
652 371
413 421
